 # Version information for this restart file 
 # current date 2021-05-21 13:52:32.421
 # current working dir /data/ahehn/xTB/cp2k_annahehn_xtb_workdir/tests/xTB/regtest-debug/testing/vibrational/periodic
 # Program compiled at                             Tue May 18 14:39:01 CEST 2021
 # Program compiled on                                                   tcopt11
 # Program compiled for                                                    local
 # Source code revision number                                       git:6a2a929
 &GLOBAL
   PRINT_LEVEL  LOW
   PROJECT_NAME CH3Br-Xe
   RUN_TYPE  GEO_OPT
 &END GLOBAL
 &FORCE_EVAL
   METHOD  QS
   &DFT
     &SCF
       MAX_SCF  100
       EPS_SCF     1.0000000000000001E-05
       SCF_GUESS  RESTART
       &OT  T
         MINIMIZER  DIIS
         PRECONDITIONER  FULL_S_INVERSE
       &END OT
       &OUTER_SCF  T
         EPS_SCF     1.0000000000000001E-05
         MAX_SCF  900
       &END OUTER_SCF
     &END SCF
     &QS
       EPS_DEFAULT     1.0000000000000000E-10
       EPS_PGF_ORB     9.9999999999999995E-21
       METHOD  XTB
       &XTB
         DO_EWALD  F
         DO_NONBONDED  T
         CHECK_ATOMIC_CHARGES  F
         &NONBONDED
           &GENPOT
             ATOMS Br Xe
             FUNCTION Aparam*exp(-Bparam*r)-Cparam/r**8
             VARIABLES r
             PARAMETERS Aparam Bparam Cparam
             VALUES     4.9506999999999998E+01    1.4410000000000001E+00    6.7031920000000000E+03
           &END GENPOT
         &END NONBONDED
       &END XTB
     &END QS
   &END DFT
   &SUBSYS
     &CELL
       A     1.0000000000000002E+01    0.0000000000000000E+00    0.0000000000000000E+00
       B     0.0000000000000000E+00    1.0000000000000002E+01    0.0000000000000000E+00
       C     0.0000000000000000E+00    0.0000000000000000E+00    1.0000000000000002E+01
       PERIODIC  XYZ
       MULTIPLE_UNIT_CELL  1 1 1
     &END CELL
     &COORD
C    4.7396557503499022E+00    2.6362266597751729E+00    4.9999999637877659E+00
H    5.7658263905095373E+00    2.2837770800848123E+00    4.9999999095321694E+00
H    4.2265828182103160E+00    2.2837421973017351E+00    5.8886831820609276E+00
H    4.2265828178695655E+00    2.2837424674301969E+00    4.1113166379098089E+00
Br    4.7396085227625839E+00    4.5878175229379021E+00    5.0000002629370712E+00
Xe    4.7396307002709905E+00    8.8084669535819380E+00    5.0000000437722578E+00
     &END COORD
     &TOPOLOGY
       NUMBER_OF_ATOMS  6
       MULTIPLE_UNIT_CELL  1 1 1
       &CENTER_COORDINATES  T
       &END CENTER_COORDINATES
     &END TOPOLOGY
   &END SUBSYS
 &END FORCE_EVAL
 &VIBRATIONAL_ANALYSIS
   FULLY_PERIODIC  T
   INTENSITIES  F
   THERMOCHEMISTRY  T
   TC_TEMPERATURE     4.5000000000000000E+02
 &END VIBRATIONAL_ANALYSIS
